9
27
46
45
25
39
40
61
62
54
33
60
52
10
5
36
1
16
37
58
50
51
56
67
48
11
64
65
12
34
21
17
68
44
30
20
14
3
32
42
18
4
2
7
26
55
49
28
8
19
24
15
57
63
66
22
59
38
31
69
35
70
29
13
23
47
53
6
41
43
9
